
Gurobi 8.1.1 (mac64, Python) logging started Mon Sep 23 00:53:42 2019

Academic license - for non-commercial use only
Optimize a model with 4 rows, 5 columns and 9 nonzeros
Coefficient statistics:
  Matrix range     [5e-01, 1e+00]
  Objective range  [4e+01, 1e+02]
  Bounds range     [0e+00, 0e+00]
  RHS range        [8e+00, 2e+01]
Presolve removed 2 rows and 2 columns
Presolve time: 0.00s
Presolved: 2 rows, 3 columns, 5 nonzeros

Iteration    Objective       Primal Inf.    Dual Inf.      Time
       0    1.0400000e+03   2.000000e+00   0.000000e+00      0s
       1    8.8000000e+02   0.000000e+00   0.000000e+00      0s

Solved in 1 iterations and 0.01 seconds
Optimal objective  8.800000000e+02
Optimize a model with 3 rows, 3 columns and 6 nonzeros
Coefficient statistics:
  Matrix range     [1e+00, 5e+00]
  Objective range  [8e+00, 9e+02]
  Bounds range     [0e+00, 0e+00]
  RHS range        [1e+03, 4e+04]
Presolve time: 0.00s

Solved in 0 iterations and 0.00 seconds
Infeasible or unbounded model

Gurobi 8.1.1 (mac64, Python) logging started Mon Sep 23 00:58:44 2019

Academic license - for non-commercial use only
Optimize a model with 3 rows, 3 columns and 6 nonzeros
Coefficient statistics:
  Matrix range     [1e+00, 5e+00]
  Objective range  [8e+00, 9e+02]
  Bounds range     [0e+00, 0e+00]
  RHS range        [1e+03, 4e+04]
Presolve time: 0.00s

Solved in 0 iterations and 0.00 seconds
Infeasible or unbounded model

Gurobi 8.1.1 (mac64, Python) logging started Mon Sep 23 00:59:07 2019

Academic license - for non-commercial use only
Optimize a model with 4 rows, 5 columns and 9 nonzeros
Coefficient statistics:
  Matrix range     [5e-01, 1e+00]
  Objective range  [4e+01, 1e+02]
  Bounds range     [0e+00, 0e+00]
  RHS range        [8e+00, 2e+01]
Presolve removed 2 rows and 2 columns
Presolve time: 0.00s
Presolved: 2 rows, 3 columns, 5 nonzeros

Iteration    Objective       Primal Inf.    Dual Inf.      Time
       0    1.0400000e+03   2.000000e+00   0.000000e+00      0s
       1    8.8000000e+02   0.000000e+00   0.000000e+00      0s

Solved in 1 iterations and 0.00 seconds
Optimal objective  8.800000000e+02

Gurobi 8.1.1 (mac64, Python) logging started Mon Sep 23 01:01:36 2019

Academic license - for non-commercial use only
Optimize a model with 3 rows, 3 columns and 6 nonzeros
Coefficient statistics:
  Matrix range     [1e+00, 5e+00]
  Objective range  [8e+00, 9e+02]
  Bounds range     [0e+00, 0e+00]
  RHS range        [1e+03, 4e+04]
Presolve time: 0.00s

Solved in 0 iterations and 0.00 seconds
Infeasible or unbounded model

Gurobi 8.1.1 (mac64, Python) logging started Mon Sep 23 08:27:15 2019

Academic license - for non-commercial use only
Optimize a model with 3 rows, 3 columns and 6 nonzeros
Coefficient statistics:
  Matrix range     [1e+00, 5e+00]
  Objective range  [8e+00, 9e+02]
  Bounds range     [0e+00, 0e+00]
  RHS range        [1e+03, 4e+04]
Presolve time: 0.00s

Solved in 0 iterations and 0.00 seconds
Infeasible or unbounded model

Gurobi 8.1.1 (mac64, Python) logging started Mon Sep 23 08:27:32 2019

Academic license - for non-commercial use only
Optimize a model with 3 rows, 3 columns and 6 nonzeros
Coefficient statistics:
  Matrix range     [1e+00, 5e+00]
  Objective range  [8e+00, 9e+02]
  Bounds range     [0e+00, 0e+00]
  RHS range        [1e+03, 4e+04]
Presolve time: 0.00s

Solved in 0 iterations and 0.00 seconds
Infeasible or unbounded model

Gurobi 8.1.1 (mac64, Python) logging started Mon Sep 23 08:27:56 2019

Academic license - for non-commercial use only
Optimize a model with 4 rows, 5 columns and 9 nonzeros
Coefficient statistics:
  Matrix range     [5e-01, 1e+00]
  Objective range  [4e+01, 1e+02]
  Bounds range     [0e+00, 0e+00]
  RHS range        [8e+00, 2e+01]
Presolve removed 2 rows and 2 columns
Presolve time: 0.00s
Presolved: 2 rows, 3 columns, 5 nonzeros

Iteration    Objective       Primal Inf.    Dual Inf.      Time
       0    1.0400000e+03   2.000000e+00   0.000000e+00      0s
       1    8.8000000e+02   0.000000e+00   0.000000e+00      0s

Solved in 1 iterations and 0.00 seconds
Optimal objective  8.800000000e+02

Gurobi 8.1.1 (mac64, Python) logging started Mon Sep 23 08:40:41 2019

Academic license - for non-commercial use only
Optimize a model with 2 rows, 3 columns and 5 nonzeros
Coefficient statistics:
  Matrix range     [1e+00, 3e+00]
  Objective range  [2e+00, 3e+00]
  Bounds range     [2e+00, 2e+00]
  RHS range        [1e+01, 1e+01]
Presolve removed 2 rows and 3 columns
Presolve time: 0.00s
Presolve: All rows and columns removed
Iteration    Objective       Primal Inf.    Dual Inf.      Time
       0    1.2000000e+01   0.000000e+00   0.000000e+00      0s

Solved in 0 iterations and 0.01 seconds
Optimal objective  1.200000000e+01

Gurobi 8.1.1 (mac64, Python) logging started Mon Sep 23 09:15:19 2019

Academic license - for non-commercial use only
Optimize a model with 4 rows, 5 columns and 9 nonzeros
Coefficient statistics:
  Matrix range     [5e-01, 1e+00]
  Objective range  [4e+01, 1e+02]
  Bounds range     [0e+00, 0e+00]
  RHS range        [8e+00, 2e+01]
Presolve removed 2 rows and 2 columns
Presolve time: 0.00s
Presolved: 2 rows, 3 columns, 5 nonzeros

Iteration    Objective       Primal Inf.    Dual Inf.      Time
       0    1.0400000e+03   2.000000e+00   0.000000e+00      0s
       1    8.8000000e+02   0.000000e+00   0.000000e+00      0s

Solved in 1 iterations and 0.01 seconds
Optimal objective  8.800000000e+02

Gurobi 8.1.1 (mac64, Python) logging started Mon Sep 23 09:18:52 2019

Academic license - for non-commercial use only
Optimize a model with 3 rows, 3 columns and 7 nonzeros
Coefficient statistics:
  Matrix range     [1e+00, 2e+02]
  Objective range  [8e+00, 9e+02]
  Bounds range     [0e+00, 0e+00]
  RHS range        [1e+03, 4e+04]
Presolve time: 0.00s
Presolved: 3 rows, 3 columns, 7 nonzeros

Iteration    Objective       Primal Inf.    Dual Inf.      Time
       0    8.5250000e+31   3.843750e+30   8.525000e+01      0s
       3    3.8800000e+05   0.000000e+00   0.000000e+00      0s

Solved in 3 iterations and 0.00 seconds
Optimal objective  3.880000000e+05

Gurobi 8.1.1 (mac64, Python) logging started Mon Sep 23 09:20:02 2019

Academic license - for non-commercial use only
Optimize a model with 4 rows, 5 columns and 9 nonzeros
Coefficient statistics:
  Matrix range     [5e-01, 1e+00]
  Objective range  [4e+01, 1e+02]
  Bounds range     [0e+00, 0e+00]
  RHS range        [8e+00, 2e+01]
Presolve removed 2 rows and 2 columns
Presolve time: 0.00s
Presolved: 2 rows, 3 columns, 5 nonzeros

Iteration    Objective       Primal Inf.    Dual Inf.      Time
       0    1.0400000e+03   2.000000e+00   0.000000e+00      0s
       1    8.8000000e+02   0.000000e+00   0.000000e+00      0s

Solved in 1 iterations and 0.00 seconds
Optimal objective  8.800000000e+02

Gurobi 8.1.1 (mac64, Python) logging started Mon Sep 23 09:48:37 2019

Academic license - for non-commercial use only
Optimize a model with 2 rows, 3 columns and 5 nonzeros
Coefficient statistics:
  Matrix range     [1e+00, 3e+00]
  Objective range  [2e+00, 3e+00]
  Bounds range     [2e+00, 2e+00]
  RHS range        [1e+01, 1e+01]
Presolve removed 2 rows and 3 columns
Presolve time: 0.00s
Presolve: All rows and columns removed
Iteration    Objective       Primal Inf.    Dual Inf.      Time
       0    1.2000000e+01   0.000000e+00   0.000000e+00      0s

Solved in 0 iterations and 0.01 seconds
Optimal objective  1.200000000e+01

Gurobi 8.1.1 (mac64, Python) logging started Mon Sep 23 10:08:38 2019

Academic license - for non-commercial use only
Optimize a model with 4 rows, 5 columns and 9 nonzeros
Coefficient statistics:
  Matrix range     [5e-01, 1e+00]
  Objective range  [4e+01, 1e+02]
  Bounds range     [0e+00, 0e+00]
  RHS range        [8e+00, 2e+01]
Presolve removed 2 rows and 2 columns
Presolve time: 0.00s
Presolved: 2 rows, 3 columns, 5 nonzeros

Iteration    Objective       Primal Inf.    Dual Inf.      Time
       0    1.0400000e+03   2.000000e+00   0.000000e+00      0s
       1    8.8000000e+02   0.000000e+00   0.000000e+00      0s

Solved in 1 iterations and 0.01 seconds
Optimal objective  8.800000000e+02

Gurobi 8.1.1 (mac64, Python) logging started Mon Sep 23 10:46:02 2019

Academic license - for non-commercial use only
Optimize a model with 2 rows, 3 columns and 5 nonzeros
Coefficient statistics:
  Matrix range     [1e+00, 3e+00]
  Objective range  [2e+00, 3e+00]
  Bounds range     [2e+00, 2e+00]
  RHS range        [1e+01, 1e+01]
Presolve removed 2 rows and 3 columns
Presolve time: 0.00s
Presolve: All rows and columns removed
Iteration    Objective       Primal Inf.    Dual Inf.      Time
       0    1.2000000e+01   0.000000e+00   0.000000e+00      0s

Solved in 0 iterations and 0.00 seconds
Optimal objective  1.200000000e+01

Gurobi 8.1.1 (mac64, Python) logging started Mon Sep 23 11:54:11 2019

Academic license - for non-commercial use only

Gurobi 8.1.1 (mac64, Python) logging started Mon Sep 23 11:54:19 2019

Academic license - for non-commercial use only

Gurobi 8.1.1 (mac64, Python) logging started Mon Sep 23 11:54:21 2019

Academic license - for non-commercial use only
Optimize a model with 2 rows, 3 columns and 5 nonzeros
Coefficient statistics:
  Matrix range     [1e+00, 3e+00]
  Objective range  [2e+00, 3e+00]
  Bounds range     [2e+00, 2e+00]
  RHS range        [1e+01, 1e+01]
Presolve removed 2 rows and 3 columns
Presolve time: 0.00s
Presolve: All rows and columns removed
Iteration    Objective       Primal Inf.    Dual Inf.      Time
       0    1.2000000e+01   0.000000e+00   0.000000e+00      0s

Solved in 0 iterations and 0.01 seconds
Optimal objective  1.200000000e+01

Gurobi 8.1.1 (mac64, Python) logging started Mon Sep 23 11:54:27 2019

Academic license - for non-commercial use only

Gurobi 8.1.1 (mac64, Python) logging started Mon Sep 23 11:56:28 2019

Academic license - for non-commercial use only

Gurobi 8.1.1 (mac64, Python) logging started Mon Sep 23 11:57:39 2019

Academic license - for non-commercial use only

Gurobi 8.1.1 (mac64, Python) logging started Mon Sep 23 11:57:58 2019

Academic license - for non-commercial use only
Optimize a model with 2 rows, 3 columns and 5 nonzeros
Coefficient statistics:
  Matrix range     [1e+00, 3e+00]
  Objective range  [2e+00, 3e+00]
  Bounds range     [2e+00, 2e+00]
  RHS range        [1e+01, 1e+01]
Presolve removed 2 rows and 3 columns
Presolve time: 0.00s
Presolve: All rows and columns removed
Iteration    Objective       Primal Inf.    Dual Inf.      Time
       0    1.2000000e+01   0.000000e+00   0.000000e+00      0s

Solved in 0 iterations and 0.01 seconds
Optimal objective  1.200000000e+01

Gurobi 8.1.1 (mac64, Python) logging started Mon Sep 23 12:00:22 2019

Academic license - for non-commercial use only

Gurobi 8.1.1 (mac64, Python) logging started Mon Sep 23 12:11:50 2019

Academic license - for non-commercial use only
Optimize a model with 2 rows, 3 columns and 5 nonzeros
Coefficient statistics:
  Matrix range     [1e+00, 3e+00]
  Objective range  [2e+00, 3e+00]
  Bounds range     [2e+00, 2e+00]
  RHS range        [1e+01, 1e+01]
Presolve removed 2 rows and 3 columns
Presolve time: 0.01s
Presolve: All rows and columns removed
Iteration    Objective       Primal Inf.    Dual Inf.      Time
       0    1.2000000e+01   0.000000e+00   0.000000e+00      0s

Solved in 0 iterations and 0.04 seconds
Optimal objective  1.200000000e+01

Gurobi 8.1.1 (mac64, Python) logging started Mon Sep 23 12:11:54 2019

Academic license - for non-commercial use only
Optimize a model with 2 rows, 3 columns and 5 nonzeros
Coefficient statistics:
  Matrix range     [1e+00, 3e+00]
  Objective range  [2e+00, 3e+00]
  Bounds range     [2e+00, 2e+00]
  RHS range        [1e+01, 1e+01]
Presolve removed 2 rows and 3 columns
Presolve time: 0.00s
Presolve: All rows and columns removed
Iteration    Objective       Primal Inf.    Dual Inf.      Time
       0    1.2000000e+01   0.000000e+00   0.000000e+00      0s

Solved in 0 iterations and 0.00 seconds
Optimal objective  1.200000000e+01

Gurobi 8.1.1 (mac64, Python) logging started Mon Sep 23 12:11:57 2019

Academic license - for non-commercial use only

Gurobi 8.1.1 (mac64, Python) logging started Mon Sep 23 12:12:57 2019

Academic license - for non-commercial use only

Gurobi 8.1.1 (mac64, Python) logging started Mon Sep 23 12:14:32 2019

Academic license - for non-commercial use only

Gurobi 8.1.1 (mac64, Python) logging started Mon Sep 23 12:15:29 2019

Academic license - for non-commercial use only
Optimize a model with 7 rows, 11 columns and 31 nonzeros
Coefficient statistics:
  Matrix range     [1e-01, 1e+01]
  Objective range  [1e+00, 1e+01]
  Bounds range     [0e+00, 0e+00]
  RHS range        [7e+00, 2e+03]
Presolve time: 0.00s
Presolved: 7 rows, 11 columns, 31 nonzeros

Iteration    Objective       Primal Inf.    Dual Inf.      Time
       0    5.1000000e+31   1.200000e+31   5.100000e+01      0s
       5    2.1475000e+04   0.000000e+00   0.000000e+00      0s

Solved in 5 iterations and 0.01 seconds
Optimal objective  2.147500000e+04

Gurobi 8.1.1 (mac64, Python) logging started Mon Sep 23 12:18:03 2019

Academic license - for non-commercial use only
Optimize a model with 7 rows, 11 columns and 31 nonzeros
Coefficient statistics:
  Matrix range     [1e-01, 3e+00]
  Objective range  [1e+00, 1e+01]
  Bounds range     [0e+00, 0e+00]
  RHS range        [6e+02, 2e+03]
Presolve removed 1 rows and 1 columns
Presolve time: 0.00s
Presolved: 6 rows, 10 columns, 33 nonzeros

Iteration    Objective       Primal Inf.    Dual Inf.      Time
       0    1.5320000e+32   4.950000e+30   1.532000e+02      0s
       7    2.1475000e+04   0.000000e+00   0.000000e+00      0s

Solved in 7 iterations and 0.01 seconds
Optimal objective  2.147500000e+04

Gurobi 8.1.1 (mac64, Python) logging started Mon Sep 23 13:56:39 2019

Academic license - for non-commercial use only
Optimize a model with 4 rows, 5 columns and 9 nonzeros
Coefficient statistics:
  Matrix range     [5e-01, 1e+00]
  Objective range  [4e+01, 1e+02]
  Bounds range     [0e+00, 0e+00]
  RHS range        [8e+00, 2e+01]
Presolve removed 2 rows and 2 columns
Presolve time: 0.00s
Presolved: 2 rows, 3 columns, 5 nonzeros

Iteration    Objective       Primal Inf.    Dual Inf.      Time
       0    1.0400000e+03   2.000000e+00   0.000000e+00      0s
       1    8.8000000e+02   0.000000e+00   0.000000e+00      0s

Solved in 1 iterations and 0.01 seconds
Optimal objective  8.800000000e+02

Gurobi 8.1.1 (mac64, Python) logging started Mon Sep 23 13:58:30 2019

Academic license - for non-commercial use only
Optimize a model with 3 rows, 4 columns and 10 nonzeros
Coefficient statistics:
  Matrix range     [8e-01, 1e+00]
  Objective range  [2e+01, 9e+01]
  Bounds range     [0e+00, 0e+00]
  RHS range        [8e+00, 2e+01]
Presolve removed 1 rows and 2 columns
Presolve time: 0.00s
Presolved: 2 rows, 2 columns, 4 nonzeros

Iteration    Objective       Primal Inf.    Dual Inf.      Time
       0    1.1000000e+03   1.995500e+00   0.000000e+00      0s
       3    8.8000000e+02   0.000000e+00   0.000000e+00      0s

Solved in 3 iterations and 0.01 seconds
Optimal objective  8.800000000e+02

Gurobi 8.1.1 (mac64, Python) logging started Mon Sep 23 13:59:28 2019

Academic license - for non-commercial use only
Optimize a model with 3 rows, 4 columns and 10 nonzeros
Coefficient statistics:
  Matrix range     [8e-01, 1e+00]
  Objective range  [2e+01, 9e+01]
  Bounds range     [0e+00, 0e+00]
  RHS range        [8e+00, 2e+01]
Presolve time: 0.00s
Presolved: 3 rows, 4 columns, 10 nonzeros

Iteration    Objective       Primal Inf.    Dual Inf.      Time
       0    1.6000000e+32   5.750000e+30   1.600000e+02      0s
       4    7.6000000e+02   0.000000e+00   0.000000e+00      0s

Solved in 4 iterations and 0.01 seconds
Optimal objective  7.600000000e+02

Gurobi 8.1.1 (mac64, Python) logging started Mon Sep 23 14:13:45 2019

Academic license - for non-commercial use only
Optimize a model with 3 rows, 3 columns and 7 nonzeros
Coefficient statistics:
  Matrix range     [1e+00, 2e+02]
  Objective range  [8e+00, 9e+02]
  Bounds range     [0e+00, 0e+00]
  RHS range        [1e+03, 4e+04]
Presolve time: 0.01s
Presolved: 3 rows, 3 columns, 7 nonzeros

Iteration    Objective       Primal Inf.    Dual Inf.      Time
       0    8.5250000e+31   3.843750e+30   8.525000e+01      0s
       3    3.8800000e+05   0.000000e+00   0.000000e+00      0s

Solved in 3 iterations and 0.01 seconds
Optimal objective  3.880000000e+05

Gurobi 8.1.1 (mac64, Python) logging started Mon Sep 23 14:24:28 2019

Academic license - for non-commercial use only
Optimize a model with 3 rows, 3 columns and 7 nonzeros
Coefficient statistics:
  Matrix range     [1e+00, 2e+02]
  Objective range  [8e+00, 9e+02]
  Bounds range     [0e+00, 0e+00]
  RHS range        [1e+03, 4e+04]
Presolve time: 0.00s
Presolved: 3 rows, 3 columns, 7 nonzeros

Iteration    Objective       Primal Inf.    Dual Inf.      Time
       0    8.5250000e+31   3.843750e+30   8.525000e+01      0s
       3    3.8800000e+05   0.000000e+00   0.000000e+00      0s

Solved in 3 iterations and 0.01 seconds
Optimal objective  3.880000000e+05

Gurobi 8.1.1 (mac64, Python) logging started Mon Sep 23 14:30:52 2019

Academic license - for non-commercial use only
Optimize a model with 3 rows, 3 columns and 7 nonzeros
Coefficient statistics:
  Matrix range     [1e+00, 2e+02]
  Objective range  [8e+00, 1e+02]
  Bounds range     [0e+00, 0e+00]
  RHS range        [1e+03, 4e+04]
Presolve time: 0.00s
Presolved: 3 rows, 3 columns, 7 nonzeros

Iteration    Objective       Primal Inf.    Dual Inf.      Time
       0    2.9000000e+31   4.437500e+30   2.900000e+01      0s
       3    1.1800000e+05   0.000000e+00   0.000000e+00      0s

Solved in 3 iterations and 0.01 seconds
Optimal objective  1.180000000e+05

Gurobi 8.1.1 (mac64, Python) logging started Mon Sep 23 14:41:54 2019

Academic license - for non-commercial use only
Optimize a model with 3 rows, 3 columns and 7 nonzeros
Coefficient statistics:
  Matrix range     [1e+00, 2e+02]
  Objective range  [8e+00, 9e+02]
  Bounds range     [0e+00, 0e+00]
  RHS range        [1e+03, 4e+04]
Presolve time: 0.01s
Presolved: 3 rows, 3 columns, 7 nonzeros

Iteration    Objective       Primal Inf.    Dual Inf.      Time
       0    8.5250000e+31   3.843750e+30   8.525000e+01      0s
       3    3.8800000e+05   0.000000e+00   0.000000e+00      0s

Solved in 3 iterations and 0.02 seconds
Optimal objective  3.880000000e+05
Optimize a model with 3 rows, 3 columns and 7 nonzeros
Coefficient statistics:
  Matrix range     [1e+00, 2e+02]
  Objective range  [8e+00, 9e+02]
  Bounds range     [0e+00, 0e+00]
  RHS range        [1e+03, 4e+04]
Presolve time: 0.03s
Presolved: 3 rows, 3 columns, 7 nonzeros

Iteration    Objective       Primal Inf.    Dual Inf.      Time
       0    8.5250000e+31   3.843750e+30   8.525000e+01      0s
       3    3.8800000e+05   0.000000e+00   0.000000e+00      0s

Solved in 3 iterations and 0.04 seconds
Optimal objective  3.880000000e+05
Optimize a model with 3 rows, 3 columns and 7 nonzeros
Coefficient statistics:
  Matrix range     [1e+00, 2e+02]
  Objective range  [8e+00, 1e+02]
  Bounds range     [0e+00, 0e+00]
  RHS range        [1e+03, 4e+04]
Presolve time: 0.03s
Presolved: 3 rows, 3 columns, 7 nonzeros

Iteration    Objective       Primal Inf.    Dual Inf.      Time
       0    2.9000000e+31   4.437500e+30   2.900000e+01      0s
       3    1.1800000e+05   0.000000e+00   0.000000e+00      0s

Solved in 3 iterations and 0.04 seconds
Optimal objective  1.180000000e+05

Gurobi 8.1.1 (mac64, Python) logging started Mon Sep 23 15:02:10 2019

Academic license - for non-commercial use only
Optimize a model with 7 rows, 11 columns and 31 nonzeros
Coefficient statistics:
  Matrix range     [1e-01, 3e+00]
  Objective range  [1e+00, 1e+01]
  Bounds range     [0e+00, 0e+00]
  RHS range        [6e+02, 2e+03]
Presolve removed 1 rows and 1 columns
Presolve time: 0.02s
Presolved: 6 rows, 10 columns, 33 nonzeros

Iteration    Objective       Primal Inf.    Dual Inf.      Time
       0    1.5320000e+32   4.950000e+30   1.532000e+02      0s
       7    2.1475000e+04   0.000000e+00   0.000000e+00      0s

Solved in 7 iterations and 0.04 seconds
Optimal objective  2.147500000e+04

Gurobi 8.1.1 (mac64, Python) logging started Mon Sep 23 15:35:16 2019

Academic license - for non-commercial use only
Optimize a model with 1 rows, 10 columns and 10 nonzeros
Coefficient statistics:
  Matrix range     [3e+01, 7e+01]
  Objective range  [4e+01, 7e+01]
  Bounds range     [1e+02, 1e+02]
  RHS range        [3e+04, 3e+04]
Presolve time: 0.01s
Presolved: 1 rows, 10 columns, 10 nonzeros

Iteration    Objective       Primal Inf.    Dual Inf.      Time
       0    5.3100000e+04   4.687500e+02   0.000000e+00      0s
       1    2.0893709e+04   0.000000e+00   0.000000e+00      0s

Solved in 1 iterations and 0.02 seconds
Optimal objective  2.089370881e+04

Gurobi 8.1.1 (mac64, Python) logging started Mon Oct  7 00:53:50 2019

Academic license - for non-commercial use only
Optimize a model with 1 rows, 10 columns and 10 nonzeros
Coefficient statistics:
  Matrix range     [3e+01, 7e+01]
  Objective range  [4e+01, 7e+01]
  Bounds range     [1e+02, 1e+02]
  RHS range        [3e+04, 3e+04]
Presolve time: 0.02s
Presolved: 1 rows, 10 columns, 10 nonzeros

Iteration    Objective       Primal Inf.    Dual Inf.      Time
       0    5.3100000e+04   4.687500e+02   0.000000e+00      0s
       1    2.0893709e+04   0.000000e+00   0.000000e+00      0s

Solved in 1 iterations and 0.04 seconds
Optimal objective  2.089370881e+04
Optimize a model with 3 rows, 2 columns and 6 nonzeros
Coefficient statistics:
  Matrix range     [2e-01, 3e+00]
  Objective range  [2e+00, 3e+00]
  Bounds range     [0e+00, 0e+00]
  RHS range        [4e+00, 2e+01]
Presolve time: 0.02s

Solved in 0 iterations and 0.02 seconds
Infeasible or unbounded model
